Version identifier: 22.1.0.0 | 2022-03-09 | 1a383f8ce
CPXPARAM_Threads                                 1
CPXPARAM_MIP_Strategy_VariableSelect             3
CPXPARAM_TimeLimit                               593.26496343999997
1 of 1 MIP starts provided solutions.
MIP start 'm1' defined initial solution with objective 281.0000.
Tried aggregator 1 time.
MIP Presolve eliminated 8 rows and 0 columns.
MIP Presolve modified 4 coefficients.
Reduced MIP has 2117 rows, 7500 columns, and 94939 nonzeros.
Reduced MIP has 7500 binaries, 0 generals, 0 SOSs, and 0 indicators.
Presolve time = 0.07 sec. (53.08 ticks)
Probing time = 0.01 sec. (4.32 ticks)
Tried aggregator 1 time.
Detecting symmetries...
MIP Presolve eliminated 4 rows and 0 columns.
Reduced MIP has 2113 rows, 7500 columns, and 94770 nonzeros.
Reduced MIP has 7500 binaries, 0 generals, 0 SOSs, and 0 indicators.
Presolve time = 0.07 sec. (50.69 ticks)
Probing time = 0.00 sec. (4.32 ticks)
Clique table members: 898.
MIP emphasis: balance optimality and feasibility.
MIP search method: dynamic search.
Parallel mode: none, using 1 thread.
Root relaxation solution time = 1.69 sec. (1689.46 ticks)

        Nodes                                         Cuts/
   Node  Left     Objective  IInf  Best Integer    Best Bound    ItCnt     Gap

*     0+    0                          281.0000     7500.0000              --- 
      0     0      300.0000  1265      281.0000      300.0000     5330    6.76%
      0     0      300.0000  1354      281.0000      Cuts: 14    12326    6.76%
      0     0      300.0000   757      281.0000      Cuts: 30    18240    6.76%
      0     0      300.0000   316      281.0000    Cliques: 3    18714    6.76%
*     0+    0                          288.0000      300.0000             4.17%
*     0+    0                          289.0000      300.0000             3.81%
*     0+    0                          290.0000      300.0000             3.45%
*     0+    0                          291.0000      300.0000             3.09%
      0     0        cutoff            291.0000      300.0000    18714    3.09%
      0     0      300.0000   390      291.0000      Cuts: 34    23895    3.09%
Detecting symmetries...
      0     2      300.0000   264      291.0000      300.0000    23895    3.09%
Elapsed time = 73.69 sec. (79482.23 ticks, tree = 0.01 MB, solutions = 5)
      1     3      300.0000   267      291.0000      300.0000    33719    3.09%
      2     4      300.0000   763      291.0000      300.0000    39952    3.09%
      3     5      300.0000   506      291.0000      300.0000    45325    3.09%
      4     6      300.0000   294      291.0000      300.0000    50608    3.09%
      5     7      300.0000   318      291.0000      300.0000    50859    3.09%
      6     8      300.0000  1416      291.0000      300.0000    65062    3.09%
      7     9      300.0000   536      291.0000      300.0000    76607    3.09%
      8    10      300.0000   329      291.0000      300.0000    77927    3.09%
      9    11      300.0000   330      291.0000      300.0000    77996    3.09%
     10    12      300.0000   275      291.0000      300.0000    81913    3.09%
Elapsed time = 97.40 sec. (104365.32 ticks, tree = 0.03 MB, solutions = 5)
     11    13      300.0000   300      291.0000      300.0000    91873    3.09%
     14    16      300.0000   280      291.0000      300.0000    92539    3.09%
     16    18      300.0000   682      291.0000      300.0000   103397    3.09%
     19    21      300.0000   238      291.0000      300.0000   104344    3.09%
     21    23      300.0000   234      291.0000      300.0000   114118    3.09%
     23    25      300.0000   254      291.0000      300.0000   124476    3.09%
     24    26      300.0000  1266      291.0000      300.0000   134860    3.09%
     25    27      300.0000   251      291.0000      300.0000   138861    3.09%
     26    28      300.0000  1239      291.0000      300.0000   146079    3.09%
     27    29      300.0000  1333      291.0000      300.0000   158746    3.09%
Elapsed time = 119.03 sec. (126725.04 ticks, tree = 0.08 MB, solutions = 5)
     29    31      300.0000  1120      291.0000      300.0000   161181    3.09%
     30    32      300.0000   520      291.0000      300.0000   166920    3.09%
     32    34      299.9832  1227      291.0000      300.0000   190565    3.09%
     33    35      300.0000   820      291.0000      300.0000   193426    3.09%
     35    37      300.0000  1054      291.0000      300.0000   206082    3.09%
     36    38      300.0000   810      291.0000      300.0000   210256    3.09%
     38    40      300.0000   439      291.0000      300.0000   218469    3.09%
     39    41      300.0000   936      291.0000      300.0000   236207    3.09%
     40    42      300.0000   509      291.0000      300.0000   241846    3.09%
     41    43      300.0000   568      291.0000      300.0000   248290    3.09%
Elapsed time = 152.56 sec. (160947.12 ticks, tree = 0.11 MB, solutions = 5)
     42    44      300.0000   539      291.0000      300.0000   251631    3.09%
     43    45      300.0000  1019      291.0000      300.0000   265227    3.09%
     45    47      300.0000   570      291.0000      300.0000   270869    3.09%
     46    48      300.0000   631      291.0000      300.0000   283189    3.09%
     48    50      300.0000   635      291.0000      300.0000   289084    3.09%
     50    52      300.0000   507      291.0000      300.0000   297320    3.09%
     51    53      300.0000   529      291.0000      300.0000   301465    3.09%
     52    54      300.0000   902      291.0000      300.0000   310982    3.09%
     53    55      300.0000   904      291.0000      300.0000   323185    3.09%
     54    56      300.0000   524      291.0000      300.0000   325496    3.09%
Elapsed time = 174.94 sec. (183313.48 ticks, tree = 0.34 MB, solutions = 5)
     55    57      300.0000   559      291.0000      300.0000   331412    3.09%
     57    59      300.0000   527      291.0000      300.0000   332834    3.09%
     58    60      300.0000   471      291.0000      300.0000   341147    3.09%
     59    61      300.0000   752      291.0000      300.0000   359989    3.09%
     61    63      300.0000   463      291.0000      300.0000   361292    3.09%
     63    65      300.0000   592      291.0000      300.0000   366118    3.09%
     64    66      300.0000   514      291.0000      300.0000   369820    3.09%
     65    67      300.0000   548      291.0000      300.0000   377304    3.09%
     66    68      300.0000   532      291.0000      300.0000   380956    3.09%
     67    69      300.0000   608      291.0000      300.0000   402686    3.09%
Elapsed time = 199.13 sec. (207504.47 ticks, tree = 0.51 MB, solutions = 5)
     68    70      300.0000   517      291.0000      300.0000   407330    3.09%
     70    72      300.0000   460      291.0000      300.0000   408983    3.09%
     71    73      300.0000   428      291.0000      300.0000   412460    3.09%
     72    74      300.0000   423      291.0000      300.0000   415336    3.09%
     74    76      300.0000   450      291.0000      300.0000   418518    3.09%
     75    77      300.0000   471      291.0000      300.0000   421651    3.09%
     77    79      300.0000   603      291.0000      300.0000   426460    3.09%
     78    80      300.0000   463      291.0000      300.0000   430201    3.09%
     79    81      300.0000   417      291.0000      300.0000   433254    3.09%
     80    82      300.0000   409      291.0000      300.0000   435780    3.09%
Elapsed time = 220.09 sec. (228106.38 ticks, tree = 0.75 MB, solutions = 5)
     81    83      300.0000   374      291.0000      300.0000   441174    3.09%
     82    84      300.0000   393      291.0000      300.0000   442950    3.09%
     83    85      300.0000   347      291.0000      300.0000   445662    3.09%
     84    86      300.0000   482      291.0000      300.0000   450767    3.09%
     85    87      300.0000   314      291.0000      300.0000   454721    3.09%
     86    88      300.0000   325      291.0000      300.0000   458362    3.09%
     87    89      300.0000   362      291.0000      300.0000   461612    3.09%
     88    90      300.0000   311      291.0000      300.0000   467048    3.09%
     89    91      300.0000   315      291.0000      300.0000   471088    3.09%
     90    92      300.0000   377      291.0000      300.0000   475656    3.09%
Elapsed time = 236.68 sec. (244904.18 ticks, tree = 0.88 MB, solutions = 5)
     91    93      300.0000   574      291.0000      300.0000   480010    3.09%
     92    94      300.0000   324      291.0000      300.0000   481697    3.09%
     93    95      300.0000   412      291.0000      300.0000   485617    3.09%
     94    96      300.0000   335      291.0000      300.0000   490600    3.09%
     95    97      300.0000   586      291.0000      300.0000   495156    3.09%
     96    98      300.0000   505      291.0000      300.0000   500022    3.09%
     97    99      300.0000   495      291.0000      300.0000   507314    3.09%
     98   100      300.0000   372      291.0000      300.0000   514793    3.09%
     99   101      300.0000   442      291.0000      300.0000   518711    3.09%
    100   102      300.0000   407      291.0000      300.0000   522111    3.09%
Elapsed time = 255.48 sec. (263627.38 ticks, tree = 1.01 MB, solutions = 5)
    101   103      300.0000   301      291.0000      300.0000   526638    3.09%
    102   104      300.0000   399      291.0000      300.0000   530600    3.09%
    103   105      300.0000   417      291.0000      300.0000   534407    3.09%
    105   107      299.9946   635      291.0000      300.0000   544568    3.09%
    106   108      300.0000   343      291.0000      300.0000   550452    3.09%
    107   109      300.0000   250      291.0000      300.0000   556829    3.09%
    108   110      300.0000   254      291.0000      300.0000   561551    3.09%
    109   111      300.0000   241      291.0000      300.0000   566874    3.09%
    110   112      299.9622   603      291.0000      300.0000   576559    3.09%
    111   113      300.0000   211      291.0000      300.0000   583262    3.09%
Elapsed time = 277.69 sec. (285505.93 ticks, tree = 1.16 MB, solutions = 5)
    112   114      300.0000   252      291.0000      300.0000   592112    3.09%
    113   115      300.0000   175      291.0000      300.0000   595015    3.09%
    114   116      299.9565   466      291.0000      300.0000   604776    3.09%
    115   117      300.0000   172      291.0000      300.0000   609523    3.09%
    116   118      300.0000   174      291.0000      300.0000   611269    3.09%
    117   119      299.9594   606      291.0000      300.0000   622919    3.09%
    118   120      299.9565   404      291.0000      300.0000   632820    3.09%
    120   122      299.9612   632      291.0000      300.0000   644676    3.09%
    121   123      300.0000   170      291.0000      300.0000   647480    3.09%
    123   125      299.9605   647      291.0000      300.0000   663909    3.09%
Elapsed time = 305.48 sec. (312894.98 ticks, tree = 1.23 MB, solutions = 5)
    124   126      299.9612   633      291.0000      300.0000   676141    3.09%
    127   129      300.0000   178      291.0000      300.0000   689874    3.09%
    129   131      299.9612   536      291.0000      300.0000   702188    3.09%
    132   134      300.0000   203      291.0000      300.0000   713616    3.09%
    134   136      299.9933   646      291.0000      300.0000   735916    3.09%
    136   138      299.9574   541      291.0000      300.0000   747806    3.09%
    138   140      299.9642   551      291.0000      300.0000   767538    3.09%
    141   143      299.9565   403      291.0000      300.0000   782096    3.09%
    143   145      299.9594   698      291.0000      300.0000   795319    3.09%
    145   147      299.9552   533      291.0000      300.0000   808713    3.09%
Elapsed time = 355.42 sec. (361801.79 ticks, tree = 1.40 MB, solutions = 5)
    149   151      299.9552   591      291.0000      300.0000   827954    3.09%
    151   153      300.0000   166      291.0000      300.0000   848917    3.09%
    158   160      300.0000   153      291.0000      300.0000   871776    3.09%
    162   164      299.9439   575      291.0000      300.0000   907049    3.09%
    165   167      300.0000   279      291.0000      300.0000   932243    3.09%
    168   170      300.0000    97      291.0000      300.0000   945377    3.09%
    170   172      300.0000    80      291.0000      300.0000   952703    3.09%
    173   175      299.9467   583      291.0000      300.0000   970780    3.09%
    176   178      300.0000   172      291.0000      300.0000   982955    3.09%
    178   180      300.0000   171      291.0000      300.0000   995639    3.09%
Elapsed time = 409.76 sec. (413562.19 ticks, tree = 1.92 MB, solutions = 5)
    180   182      300.0000   192      291.0000      300.0000  1005395    3.09%
    182   184      300.0000   227      291.0000      300.0000  1039105    3.09%
    185   187      299.9441   587      291.0000      300.0000  1058703    3.09%
    187   189      300.0000   263      291.0000      300.0000  1075293    3.09%
    189   191      299.9467   616      291.0000      300.0000  1093635    3.09%
    191   193      299.9441   615      291.0000      300.0000  1108644    3.09%
    194   196      300.0000   209      291.0000      300.0000  1126324    3.09%
    197   199      300.0000   259      291.0000      300.0000  1138392    3.09%
    200   202      300.0000   425      291.0000      300.0000  1157285    3.09%
    203   205      299.9409   490      291.0000      300.0000  1175117    3.09%
Elapsed time = 465.48 sec. (466966.15 ticks, tree = 2.21 MB, solutions = 5)
    205   207      299.9416   573      291.0000      300.0000  1192219    3.09%
    208   210      300.0000   322      291.0000      300.0000  1209174    3.09%
    211   213      300.0000   344      291.0000      300.0000  1227556    3.09%
    213   215      300.0000   336      291.0000      300.0000  1242874    3.09%
    215   217      299.9959   548      291.0000      300.0000  1257980    3.09%
    219   221      298.9091   476      291.0000      300.0000  1271692    3.09%
    223   225      299.8583   564      291.0000      300.0000  1277068    3.09%
    229   231      299.8705   480      291.0000      300.0000  1286523    3.09%
    236   238      299.9460   457      291.0000      300.0000  1294035    3.09%
    242   243      299.9356   564      291.0000      300.0000  1303182    3.09%
Elapsed time = 511.85 sec. (512772.68 ticks, tree = 2.46 MB, solutions = 5)
    247   248      298.8000   611      291.0000      300.0000  1317468    3.09%
    253   254      299.9064   610      291.0000      300.0000  1325586    3.09%
    258   259      299.9028   564      291.0000      300.0000  1335115    3.09%
    265   264      299.8915   562      291.0000      300.0000  1342933    3.09%
    271   270      299.4286   491      291.0000      300.0000  1351994    3.09%
    278   277      298.9091   391      291.0000      300.0000  1364273    3.09%
    285   284      298.9091   591      291.0000      300.0000  1376864    3.09%
    292   291      299.8104   483      291.0000      300.0000  1385795    3.09%
    299   298      299.7843   454      291.0000      300.0000  1393568    3.09%
Starting limited solution polishing.
*   300+  297                          293.0000      300.0000             2.39%
    300   299      299.7783   435      293.0000      300.0000  1394778    2.39%
Elapsed time = 557.76 sec. (558226.99 ticks, tree = 2.64 MB, solutions = 6)
    306   305      298.8750   291      293.0000      300.0000  1404772    2.39%
    312   309    infeasible            293.0000      300.0000  1414869    2.39%
    318   313    infeasible            293.0000      300.0000  1427338    2.39%
    320   315      299.7479   445      293.0000      300.0000  1430218    2.39%
    327   321      299.7468   411      293.0000      300.0000  1439346    2.39%
    333   327      299.7449   425      293.0000      300.0000  1449500    2.39%
    339   332      299.7396   400      293.0000      300.0000  1460615    2.39%

Clique cuts applied:  30
Zero-half cuts applied:  14
Lift and project cuts applied:  1
Gomory fractional cuts applied:  1

Root node processing (before b&c):
  Real time             =   73.64 sec. (79428.81 ticks)
Sequential b&c:
  Real time             =  519.62 sec. (513642.93 ticks)
                          ------------
Total (root+branch&cut) =  593.27 sec. (593071.74 ticks)
Primal:	293
Dual:	300
Status:	Feasible
Time:	593.24
Sequence:
	9
	1
	16
	1
	10
	2
	23
	1
	18
	6
	10
	15
	12
	3
	0
	19
	12
	8
	11
	7
	0
	3
	11
	17
	14
	6
	24
	21
	24
	2
	20
	5
	24
	5
	16
	21
	23
	22
	20
	22
	20
	5
	16
	5
	23
	2
	3
	14
	8
	12
	19
	18
	19
	12
	15
	10
	1
	0
	3
	0
	3
	0
	3
	18
	19
	18
	19
	18
	3
	0
	1
	0
	3
	0
	3
	5
	16
	21
	23
	15
	4
	21
	16
	1
	4
	15
	20
	21
	24
	21
	24
	21
	20
	15
	9
	21
	16
	6
	12
	17
	1
	20
	2
	10
	15
	11
	7
	18
	6
	23
	2
	9
	1
	16
	21
	9
	15
	23
	2
	10
	1
	24
	22
	10
	6
	24
	5
	10
	15
	20
	15
	10
	1
	24
	21
	10
	15
	23
	22
	10
	6
	8
	12
	17
	13
	19
	18
	4
	13
	8
	14
	17
	11
	19
	18
	7
	11
	8
	0
	17
	13
	19
	18
	4
	13
	8
	14
	17
	13
	3
	18
	21
	20
	15
	4
	14
	8
	13
	4
	22
	20
	15
	10
	5
	24
	6
	9
	2
	23
	15
	0
	21
	24
	1
	4
	2
	20
	15
	9
	5
	16
	6
	12
	17
	11
	19
	0
	4
	13
	8
	12
	7
	15
	20
	22
	9
	6
	24
	2
	10
	1
	24
	21
	18
	19
	11
	17
	14
	8
	13
	17
	14
	8
	11
	7
	0
	3
	11
	17
	21
	20
	15
	4
	0
	3
	13
	17
	21
	20
	15
	9
	21
	16
	1
	12
	17
	13
	19
	18
	17
	11
	19
	2
	9
	15
	13
	4
	0
	8
	11
	7
	0
	8
	11
	4
	0
	19
	11
	17
	14
	8
	13
	4
	18
	6
	23
	2
	9
	1
	16
	5
	10
	15
